c File: flat50_3_0.col
c
c SOURCE: Joseph Culberson (joe@cs.ualberta.ca)
c DESCRIPTION: Quasi-random coloring problem
c              generated with flatness = 0
c                             probability = 0.139
c                             known coloring = 3
c                             random seed = 1800
c              Creation Date:  Tue Jun  9 12:18:14 1998
c Maximum degree = 8 Minimum degree = 0
c p edge 50 115
c cnf created by edge2cnf
p cnf 150 545
-1 -2 0
-1 -3 0
-2 -3 0
1 2 3 0
-4 -5 0
-4 -6 0
-5 -6 0
4 5 6 0
-7 -8 0
-7 -9 0
-8 -9 0
7 8 9 0
-10 -11 0
-10 -12 0
-11 -12 0
10 11 12 0
-13 -14 0
-13 -15 0
-14 -15 0
13 14 15 0
-16 -17 0
-16 -18 0
-17 -18 0
16 17 18 0
-19 -20 0
-19 -21 0
-20 -21 0
19 20 21 0
-22 -23 0
-22 -24 0
-23 -24 0
22 23 24 0
-25 -26 0
-25 -27 0
-26 -27 0
25 26 27 0
-28 -29 0
-28 -30 0
-29 -30 0
28 29 30 0
-31 -32 0
-31 -33 0
-32 -33 0
31 32 33 0
-34 -35 0
-34 -36 0
-35 -36 0
34 35 36 0
-37 -38 0
-37 -39 0
-38 -39 0
37 38 39 0
-40 -41 0
-40 -42 0
-41 -42 0
40 41 42 0
-43 -44 0
-43 -45 0
-44 -45 0
43 44 45 0
-46 -47 0
-46 -48 0
-47 -48 0
46 47 48 0
-49 -50 0
-49 -51 0
-50 -51 0
49 50 51 0
-52 -53 0
-52 -54 0
-53 -54 0
52 53 54 0
-55 -56 0
-55 -57 0
-56 -57 0
55 56 57 0
-58 -59 0
-58 -60 0
-59 -60 0
58 59 60 0
-61 -62 0
-61 -63 0
-62 -63 0
61 62 63 0
-64 -65 0
-64 -66 0
-65 -66 0
64 65 66 0
-67 -68 0
-67 -69 0
-68 -69 0
67 68 69 0
-70 -71 0
-70 -72 0
-71 -72 0
70 71 72 0
-73 -74 0
-73 -75 0
-74 -75 0
73 74 75 0
-76 -77 0
-76 -78 0
-77 -78 0
76 77 78 0
-79 -80 0
-79 -81 0
-80 -81 0
79 80 81 0
-82 -83 0
-82 -84 0
-83 -84 0
82 83 84 0
-85 -86 0
-85 -87 0
-86 -87 0
85 86 87 0
-88 -89 0
-88 -90 0
-89 -90 0
88 89 90 0
-91 -92 0
-91 -93 0
-92 -93 0
91 92 93 0
-94 -95 0
-94 -96 0
-95 -96 0
94 95 96 0
-97 -98 0
-97 -99 0
-98 -99 0
97 98 99 0
-100 -101 0
-100 -102 0
-101 -102 0
100 101 102 0
-103 -104 0
-103 -105 0
-104 -105 0
103 104 105 0
-106 -107 0
-106 -108 0
-107 -108 0
106 107 108 0
-109 -110 0
-109 -111 0
-110 -111 0
109 110 111 0
-112 -113 0
-112 -114 0
-113 -114 0
112 113 114 0
-115 -116 0
-115 -117 0
-116 -117 0
115 116 117 0
-118 -119 0
-118 -120 0
-119 -120 0
118 119 120 0
-121 -122 0
-121 -123 0
-122 -123 0
121 122 123 0
-124 -125 0
-124 -126 0
-125 -126 0
124 125 126 0
-127 -128 0
-127 -129 0
-128 -129 0
127 128 129 0
-130 -131 0
-130 -132 0
-131 -132 0
130 131 132 0
-133 -134 0
-133 -135 0
-134 -135 0
133 134 135 0
-136 -137 0
-136 -138 0
-137 -138 0
136 137 138 0
-139 -140 0
-139 -141 0
-140 -141 0
139 140 141 0
-142 -143 0
-142 -144 0
-143 -144 0
142 143 144 0
-145 -146 0
-145 -147 0
-146 -147 0
145 146 147 0
-148 -149 0
-148 -150 0
-149 -150 0
148 149 150 0
-100 -1 0
-101 -2 0
-102 -3 0
-85 -4 0
-86 -5 0
-87 -6 0
-94 -4 0
-95 -5 0
-96 -6 0
-106 -4 0
-107 -5 0
-108 -6 0
-124 -4 0
-125 -5 0
-126 -6 0
-130 -4 0
-131 -5 0
-132 -6 0
-145 -4 0
-146 -5 0
-147 -6 0
-55 -7 0
-56 -8 0
-57 -9 0
-91 -7 0
-92 -8 0
-93 -9 0
-115 -7 0
-116 -8 0
-117 -9 0
-148 -7 0
-149 -8 0
-150 -9 0
-61 -10 0
-62 -11 0
-63 -12 0
-88 -10 0
-89 -11 0
-90 -12 0
-94 -10 0
-95 -11 0
-96 -12 0
-115 -10 0
-116 -11 0
-117 -12 0
-142 -10 0
-143 -11 0
-144 -12 0
-58 -13 0
-59 -14 0
-60 -15 0
-85 -13 0
-86 -14 0
-87 -15 0
-97 -13 0
-98 -14 0
-99 -15 0
-148 -13 0
-149 -14 0
-150 -15 0
-79 -16 0
-80 -17 0
-81 -18 0
-91 -16 0
-92 -17 0
-93 -18 0
-55 -19 0
-56 -20 0
-57 -21 0
-97 -19 0
-98 -20 0
-99 -21 0
-106 -19 0
-107 -20 0
-108 -21 0
-118 -19 0
-119 -20 0
-120 -21 0
-121 -19 0
-122 -20 0
-123 -21 0
-76 -22 0
-77 -23 0
-78 -24 0
-100 -22 0
-101 -23 0
-102 -24 0
-124 -22 0
-125 -23 0
-126 -24 0
-70 -25 0
-71 -26 0
-72 -27 0
-97 -25 0
-98 -26 0
-99 -27 0
-100 -25 0
-101 -26 0
-102 -27 0
-115 -25 0
-116 -26 0
-117 -27 0
-142 -25 0
-143 -26 0
-144 -27 0
-148 -25 0
-149 -26 0
-150 -27 0
-58 -28 0
-59 -29 0
-60 -30 0
-82 -28 0
-83 -29 0
-84 -30 0
-118 -28 0
-119 -29 0
-120 -30 0
-61 -31 0
-62 -32 0
-63 -33 0
-64 -31 0
-65 -32 0
-66 -33 0
-85 -31 0
-86 -32 0
-87 -33 0
-133 -31 0
-134 -32 0
-135 -33 0
-142 -31 0
-143 -32 0
-144 -33 0
-145 -31 0
-146 -32 0
-147 -33 0
-79 -34 0
-80 -35 0
-81 -36 0
-127 -34 0
-128 -35 0
-129 -36 0
-136 -34 0
-137 -35 0
-138 -36 0
-148 -34 0
-149 -35 0
-150 -36 0
-76 -37 0
-77 -38 0
-78 -39 0
-91 -37 0
-92 -38 0
-93 -39 0
-100 -37 0
-101 -38 0
-102 -39 0
-103 -37 0
-104 -38 0
-105 -39 0
-112 -37 0
-113 -38 0
-114 -39 0
-124 -37 0
-125 -38 0
-126 -39 0
-130 -37 0
-131 -38 0
-132 -39 0
-82 -40 0
-83 -41 0
-84 -42 0
-112 -40 0
-113 -41 0
-114 -42 0
-127 -40 0
-128 -41 0
-129 -42 0
-58 -43 0
-59 -44 0
-60 -45 0
-64 -43 0
-65 -44 0
-66 -45 0
-67 -43 0
-68 -44 0
-69 -45 0
-121 -43 0
-122 -44 0
-123 -45 0
-124 -43 0
-125 -44 0
-126 -45 0
-52 -46 0
-53 -47 0
-54 -48 0
-64 -46 0
-65 -47 0
-66 -48 0
-73 -46 0
-74 -47 0
-75 -48 0
-85 -46 0
-86 -47 0
-87 -48 0
-112 -46 0
-113 -47 0
-114 -48 0
-118 -46 0
-119 -47 0
-120 -48 0
-127 -46 0
-128 -47 0
-129 -48 0
-58 -49 0
-59 -50 0
-60 -51 0
-76 -49 0
-77 -50 0
-78 -51 0
-79 -49 0
-80 -50 0
-81 -51 0
-112 -49 0
-113 -50 0
-114 -51 0
-121 -49 0
-122 -50 0
-123 -51 0
-145 -49 0
-146 -50 0
-147 -51 0
-133 -52 0
-134 -53 0
-135 -54 0
-136 -52 0
-137 -53 0
-138 -54 0
-139 -52 0
-140 -53 0
-141 -54 0
-103 -55 0
-104 -56 0
-105 -57 0
-136 -55 0
-137 -56 0
-138 -57 0
-106 -58 0
-107 -59 0
-108 -60 0
-118 -58 0
-119 -59 0
-120 -60 0
-121 -64 0
-122 -65 0
-123 -66 0
-124 -67 0
-125 -68 0
-126 -69 0
-127 -67 0
-128 -68 0
-129 -69 0
-139 -67 0
-140 -68 0
-141 -69 0
-148 -67 0
-149 -68 0
-150 -69 0
-103 -70 0
-104 -71 0
-105 -72 0
-127 -70 0
-128 -71 0
-129 -72 0
-106 -73 0
-107 -74 0
-108 -75 0
-118 -73 0
-119 -74 0
-120 -75 0
-124 -73 0
-125 -74 0
-126 -75 0
-136 -73 0
-137 -74 0
-138 -75 0
-106 -79 0
-107 -80 0
-108 -81 0
-121 -79 0
-122 -80 0
-123 -81 0
-139 -79 0
-140 -80 0
-141 -81 0
-145 -79 0
-146 -80 0
-147 -81 0
-115 -82 0
-116 -83 0
-117 -84 0
-127 -82 0
-128 -83 0
-129 -84 0
-133 -82 0
-134 -83 0
-135 -84 0
-121 -85 0
-122 -86 0
-123 -87 0
-136 -85 0
-137 -86 0
-138 -87 0
-142 -85 0
-143 -86 0
-144 -87 0
-118 -88 0
-119 -89 0
-120 -90 0
-133 -88 0
-134 -89 0
-135 -90 0
-133 -91 0
-134 -92 0
-135 -93 0
-127 -94 0
-128 -95 0
-129 -96 0
-130 -94 0
-131 -95 0
-132 -96 0
-145 -94 0
-146 -95 0
-147 -96 0
-103 -100 0
-104 -101 0
-105 -102 0
-115 -100 0
-116 -101 0
-117 -102 0
-118 -100 0
-119 -101 0
-120 -102 0
-148 -100 0
-149 -101 0
-150 -102 0
